c Original Bench File <E:\Doutorado\elmaia_github\cnf\itc\itc99\b03\b03_opt.bench>
c 
c Map <original_signal> <mapped_signal>
c Map REQUEST1 1
c Map REQUEST2 2
c Map REQUEST3 3
c Map REQUEST4 4
c Map GRANT_O_REG_3_ 5
c Map GRANT_O_REG_2_ 6
c Map GRANT_O_REG_1_ 7
c Map GRANT_O_REG_0_ 8
c Map STATO_REG_0_ 9
c Map U340 10
c Map CODA0_REG_2_ 11
c Map U339 12
c Map CODA0_REG_1_ 13
c Map U328 14
c Map CODA0_REG_0_ 15
c Map U329 16
c Map CODA1_REG_2_ 17
c Map U330 18
c Map CODA1_REG_1_ 19
c Map U331 20
c Map CODA1_REG_0_ 21
c Map U332 22
c Map CODA2_REG_2_ 23
c Map U333 24
c Map CODA2_REG_1_ 25
c Map U334 26
c Map CODA2_REG_0_ 27
c Map U335 28
c Map CODA3_REG_2_ 29
c Map U336 30
c Map CODA3_REG_1_ 31
c Map U337 32
c Map CODA3_REG_0_ 33
c Map U338 34
c Map GRANT_REG_3_ 35
c Map U361 36
c Map GRANT_REG_2_ 37
c Map U360 38
c Map GRANT_REG_1_ 39
c Map U359 40
c Map GRANT_REG_0_ 41
c Map U358 42
c Map U357 43
c Map U356 44
c Map U355 45
c Map U354 46
c Map RU3_REG 47
c Map U353 48
c Map FU1_REG 49
c Map U327 50
c Map FU3_REG 51
c Map U352 52
c Map RU1_REG 53
c Map U326 54
c Map RU4_REG 55
c Map U351 56
c Map FU2_REG 57
c Map U350 58
c Map FU4_REG 59
c Map U349 60
c Map RU2_REG 61
c Map U348 62
c Map STATO_REG_1_ 63
c Map U433 64
c Map U342 65
c Map U343 66
c Map U367 67
c Map U319 68
c Map U345 69
c Map U320 70
c Map U362 71
c Map U321 72
c Map U322 73
c Map U323 74
c Map U346 75
c Map U324 76
c Map U370 77
c Map U325 78
c Map U347 79
c Map U364 80
c Map U365 81
c Map U399 82
c Map U398 83
c Map U400 84
c Map U396 85
c Map U395 86
c Map U397 87
c Map U393 88
c Map U392 89
c Map U394 90
c Map U390 91
c Map U389 92
c Map U391 93
c Map U387 94
c Map U386 95
c Map U388 96
c Map U384 97
c Map U383 98
c Map U385 99
c Map U381 100
c Map U380 101
c Map U382 102
c Map U378 103
c Map U377 104
c Map U379 105
c Map U376 106
c Map U375 107
c Map U374 108
c Map U373 109
c Map U372 110
c Map U371 111
c Map U404 112
c Map U403 113
c Map U405 114
c Map U341 115
c Map U344 116
c Map U363 117
c Map U369 118
c Map U407 119
c Map U406 120
c Map U409 121
c Map U408 122
c Map U411 123
c Map U410 124
c Map U413 125
c Map U412 126
c Map U415 127
c Map U414 128
c Map U417 129
c Map U416 130
c Map U419 131
c Map U418 132
c Map U421 133
c Map U420 134
c Map U423 135
c Map U422 136
c Map U425 137
c Map U424 138
c Map U427 139
c Map U426 140
c Map U429 141
c Map U428 142
c Map U431 143
c Map U430 144
c Map U432 145
c Map U366 146
c Map U368 147
c Map U401 148
c Map U402 149
c 
c I/O Map <original_signal> <mapped_signal>
c $i 1 i_0
c $i 2 i_1
c $i 3 i_2
c $i 4 i_3
c $o 5 o_0
c $o 6 o_1
c $o 7 o_2
c $o 8 o_3
c 
p cnf 149 362
65 64 0
66 64 0
11 64 0
67 64 0
-65 -66 -11 -67 -64 0
-69 68 0
-51 68 0
69 51 -68 0
-71 70 0
-57 70 0
71 57 -70 0
-47 72 0
-59 72 0
-73 72 0
-61 72 0
47 59 73 61 -72 0
55 73 0
-55 -73 0
-75 74 0
-49 74 0
75 49 -74 0
-77 -76 0
-63 -76 0
77 63 76 0
63 -78 0
79 -78 0
-63 -79 78 0
75 54 0
80 54 0
-75 -80 -54 0
75 50 0
81 50 0
-75 -81 -50 0
82 14 0
83 14 0
84 14 0
-82 -83 -84 -14 0
85 16 0
86 16 0
87 16 0
-85 -86 -87 -16 0
88 18 0
89 18 0
90 18 0
-88 -89 -90 -18 0
91 20 0
92 20 0
93 20 0
-91 -92 -93 -20 0
94 22 0
95 22 0
96 22 0
-94 -95 -96 -22 0
97 24 0
98 24 0
99 24 0
-97 -98 -99 -24 0
100 26 0
101 26 0
102 26 0
-100 -101 -102 -26 0
103 28 0
104 28 0
105 28 0
-103 -104 -105 -28 0
106 30 0
107 30 0
-106 -107 -30 0
108 32 0
109 32 0
-108 -109 -32 0
110 34 0
111 34 0
-110 -111 -34 0
112 12 0
113 12 0
114 12 0
-112 -113 -114 -12 0
9 10 0
-9 -10 0
53 115 0
-53 -115 0
15 65 0
-15 -65 0
13 66 0
-13 -66 0
11 116 0
-11 -116 0
47 69 0
71 69 0
-47 -71 -69 0
53 75 0
9 75 0
-53 -9 -75 0
74 79 0
117 79 0
118 79 0
-74 -117 -118 -79 0
119 62 0
120 62 0
-119 -120 -62 0
121 60 0
122 60 0
-121 -122 -60 0
123 58 0
124 58 0
-123 -124 -58 0
125 56 0
126 56 0
-125 -126 -56 0
127 52 0
128 52 0
-127 -128 -52 0
129 48 0
130 48 0
-129 -130 -48 0
131 46 0
132 46 0
-131 -132 -46 0
133 45 0
134 45 0
-133 -134 -45 0
135 44 0
136 44 0
-135 -136 -44 0
137 43 0
138 43 0
-137 -138 -43 0
139 42 0
140 42 0
-139 -140 -42 0
141 40 0
142 40 0
-141 -142 -40 0
143 38 0
144 38 0
-143 -144 -38 0
64 36 0
145 36 0
-64 -145 -36 0
61 71 0
-61 -71 0
63 117 0
146 117 0
-63 -146 -117 0
1 80 0
10 80 0
-1 -10 -80 0
49 81 0
10 81 0
-49 -10 -81 0
-51 146 0
-49 146 0
-59 146 0
-57 146 0
51 49 59 57 -146 0
117 67 0
-117 -67 0
72 147 0
70 147 0
68 147 0
-72 -70 -68 -147 0
115 118 0
9 118 0
147 118 0
-115 -9 -147 -118 0
79 77 0
-79 -77 0
33 111 0
77 111 0
-33 -77 -111 0
76 110 0
27 110 0
-76 -27 -110 0
31 109 0
77 109 0
-31 -77 -109 0
25 108 0
76 108 0
-25 -76 -108 0
29 107 0
77 107 0
-29 -77 -107 0
23 106 0
76 106 0
-23 -76 -106 0
78 104 0
33 104 0
-78 -33 -104 0
27 103 0
77 103 0
-27 -77 -103 0
21 105 0
76 105 0
-21 -76 -105 0
78 101 0
31 101 0
-78 -31 -101 0
25 100 0
77 100 0
-25 -77 -100 0
19 102 0
76 102 0
-19 -76 -102 0
78 98 0
29 98 0
-78 -29 -98 0
23 97 0
77 97 0
-23 -77 -97 0
17 99 0
76 99 0
-17 -76 -99 0
78 95 0
27 95 0
-78 -27 -95 0
21 94 0
77 94 0
-21 -77 -94 0
76 96 0
15 96 0
-76 -15 -96 0
78 92 0
25 92 0
-78 -25 -92 0
19 91 0
77 91 0
-19 -77 -91 0
76 93 0
13 93 0
-76 -13 -93 0
78 89 0
23 89 0
-78 -23 -89 0
17 88 0
77 88 0
-17 -77 -88 0
76 90 0
11 90 0
-76 -11 -90 0
71 86 0
115 86 0
76 86 0
-71 -115 -76 -86 0
21 85 0
78 85 0
-21 -78 -85 0
77 87 0
15 87 0
-77 -15 -87 0
69 83 0
115 83 0
76 83 0
-69 -115 -76 -83 0
19 82 0
78 82 0
-19 -78 -82 0
77 84 0
13 84 0
-77 -13 -84 0
-47 148 0
-61 148 0
47 61 -148 0
115 149 0
148 149 0
-115 -148 -149 0
76 113 0
149 113 0
-76 -149 -113 0
17 112 0
78 112 0
-17 -78 -112 0
77 114 0
11 114 0
-77 -11 -114 0
2 120 0
10 120 0
-2 -10 -120 0
61 119 0
9 119 0
-61 -9 -119 0
59 122 0
10 122 0
-59 -10 -122 0
55 121 0
9 121 0
-55 -9 -121 0
57 124 0
10 124 0
-57 -10 -124 0
61 123 0
9 123 0
-61 -9 -123 0
4 126 0
10 126 0
-4 -10 -126 0
55 125 0
9 125 0
-55 -9 -125 0
51 128 0
10 128 0
-51 -10 -128 0
47 127 0
9 127 0
-47 -9 -127 0
3 130 0
10 130 0
-3 -10 -130 0
47 129 0
9 129 0
-47 -9 -129 0
8 132 0
10 132 0
-8 -10 -132 0
41 131 0
9 131 0
-41 -9 -131 0
7 134 0
10 134 0
-7 -10 -134 0
39 133 0
9 133 0
-39 -9 -133 0
6 136 0
10 136 0
-6 -10 -136 0
37 135 0
9 135 0
-37 -9 -135 0
5 138 0
10 138 0
-5 -10 -138 0
35 137 0
9 137 0
-35 -9 -137 0
41 140 0
117 140 0
-41 -117 -140 0
13 139 0
15 139 0
11 139 0
67 139 0
-13 -15 -11 -67 -139 0
39 142 0
117 142 0
-39 -117 -142 0
66 141 0
116 141 0
15 141 0
67 141 0
-66 -116 -15 -67 -141 0
37 144 0
117 144 0
-37 -117 -144 0
65 143 0
116 143 0
13 143 0
67 143 0
-65 -116 -13 -67 -143 0
35 145 0
117 145 0
-35 -117 -145 0
